100	1
0 56
0 76
0 60
0 57
0 23
0 54
0 95
0 60
0 18
0 24
0 22
0 65
0 99
0 4
0 44
0 92
0 33
0 56
0 6
0 26
0 26
0 43
0 68
0 32
0 7
0 66
0 36
0 34
0 1
0 16
0 73
0 47
0 77
0 79
0 48
0 83
0 97
0 84
0 42
0 77
0 35
0 15
0 25
0 95
0 27
0 87
0 86
0 90
0 35
0 81
0 31
0 19
0 40
0 45
0 36
0 7
0 27
0 96
0 58
0 61
0 32
0 55
0 69
0 52
0 22
0 84
0 85
0 69
0 80
0 28
0 93
0 89
0 52
0 39
0 8
0 6
0 56
0 87
0 25
0 58
0 6
0 55
0 46
0 58
0 8
0 66
0 22
0 60
0 64
0 37
0 27
0 40
0 53
0 99
0 91
0 85
0 31
0 33
0 31
0 33
